(set-info :smt-lib-version 2.6)
(set-logic QF_LRA)
(set-info :source |
Fully parameterized specification and verification of a synchronizer   
circuit modeling metastability at various levels of refinement.     
A paper describing this specification, to be published in Designing     
Correct Circuits (DCC), 2006, is available from the authors.            

Geoffrey Brown, Indiana University <geobrown@cs.indiana.edu>
Lee Pike, Galois Connections, Inc. <leepike@galois.com>

Translated into CVC format by Leonardo de Moura.

This benchmark was automatically translated into SMT-LIB format from
CVC format using CVC Lite

|)
(set-info :category "industrial")
(set-info :status sat)
(declare-fun x_0 () Bool)
(declare-fun x_1 () Bool)
(declare-fun x_2 () Real)
(declare-fun x_3 () Real)
(declare-fun x_4 () Bool)
(declare-fun x_5 () Bool)
(declare-fun x_6 () Real)
(declare-fun x_7 () Real)
(declare-fun x_8 () Bool)
(declare-fun x_9 () Bool)
(declare-fun x_10 () Real)
(declare-fun x_11 () Real)
(declare-fun x_12 () Bool)
(declare-fun x_13 () Bool)
(declare-fun x_14 () Real)
(declare-fun x_15 () Real)
(declare-fun x_16 () Bool)
(declare-fun x_17 () Bool)
(declare-fun x_18 () Real)
(declare-fun x_19 () Real)
(declare-fun x_20 () Bool)
(declare-fun x_21 () Bool)
(declare-fun x_22 () Real)
(declare-fun x_23 () Real)
(declare-fun x_24 () Bool)
(declare-fun x_25 () Bool)
(declare-fun x_26 () Real)
(declare-fun x_27 () Real)
(declare-fun x_28 () Bool)
(declare-fun x_29 () Bool)
(declare-fun x_30 () Real)
(declare-fun x_31 () Real)
(declare-fun x_32 () Bool)
(declare-fun x_33 () Bool)
(declare-fun x_34 () Real)
(declare-fun x_35 () Real)
(declare-fun x_36 () Bool)
(declare-fun x_37 () Bool)
(declare-fun x_38 () Real)
(declare-fun x_39 () Real)
(declare-fun x_40 () Bool)
(declare-fun x_41 () Bool)
(declare-fun x_42 () Real)
(declare-fun x_43 () Real)
(declare-fun x_44 () Bool)
(declare-fun x_45 () Bool)
(declare-fun x_46 () Real)
(declare-fun x_47 () Real)
(declare-fun x_48 () Bool)
(declare-fun x_49 () Bool)
(declare-fun x_50 () Real)
(declare-fun x_51 () Real)
(declare-fun x_52 () Bool)
(declare-fun x_53 () Bool)
(declare-fun x_54 () Real)
(declare-fun x_55 () Real)
(declare-fun x_56 () Bool)
(declare-fun x_57 () Bool)
(declare-fun x_58 () Real)
(declare-fun x_59 () Real)
(declare-fun x_60 () Bool)
(declare-fun x_61 () Bool)
(declare-fun x_62 () Real)
(declare-fun x_63 () Real)
(declare-fun x_64 () Bool)
(declare-fun x_65 () Bool)
(declare-fun x_66 () Real)
(declare-fun x_67 () Real)
(declare-fun x_68 () Bool)
(declare-fun x_69 () Bool)
(declare-fun x_70 () Real)
(declare-fun x_71 () Real)
(declare-fun x_72 () Real)
(declare-fun x_73 () Real)
(declare-fun x_74 () Real)
(declare-fun x_75 () Real)
(declare-fun x_76 () Real)
(declare-fun x_77 () Real)
(declare-fun x_78 () Real)
(declare-fun x_79 () Real)
(declare-fun x_80 () Real)
(declare-fun x_81 () Real)
(declare-fun x_82 () Bool)
(declare-fun x_83 () Bool)
(declare-fun x_84 () Real)
(declare-fun x_85 () Real)
(declare-fun x_86 () Real)
(declare-fun x_87 () Real)
(declare-fun x_88 () Bool)
(declare-fun x_89 () Bool)
(declare-fun x_90 () Bool)
(declare-fun x_91 () Bool)
(declare-fun x_92 () Bool)
(declare-fun x_93 () Real)
(declare-fun x_94 () Bool)
(declare-fun x_95 () Real)
(declare-fun x_96 () Real)
(declare-fun x_97 () Real)
(declare-fun x_98 () Real)
(declare-fun x_99 () Real)
(declare-fun x_100 () Real)
(declare-fun x_101 () Real)
(declare-fun x_102 () Real)
(declare-fun x_103 () Real)
(declare-fun x_104 () Bool)
(declare-fun x_105 () Real)
(declare-fun x_106 () Bool)
(declare-fun x_107 () Bool)
(declare-fun x_108 () Real)
(declare-fun x_109 () Bool)
(declare-fun x_110 () Real)
(declare-fun x_111 () Real)
(declare-fun x_112 () Real)
(declare-fun x_113 () Real)
(declare-fun x_114 () Real)
(declare-fun x_115 () Real)
(declare-fun x_116 () Real)
(declare-fun x_117 () Real)
(declare-fun x_118 () Bool)
(declare-fun x_119 () Real)
(declare-fun x_120 () Bool)
(declare-fun x_121 () Bool)
(declare-fun x_122 () Real)
(declare-fun x_123 () Bool)
(declare-fun x_124 () Real)
(declare-fun x_125 () Real)
(declare-fun x_126 () Real)
(declare-fun x_127 () Real)
(declare-fun x_128 () Real)
(declare-fun x_129 () Real)
(declare-fun x_130 () Real)
(declare-fun x_131 () Real)
(declare-fun x_132 () Bool)
(declare-fun x_133 () Real)
(declare-fun x_134 () Bool)
(declare-fun x_135 () Bool)
(declare-fun x_136 () Real)
(declare-fun x_137 () Bool)
(declare-fun x_138 () Real)
(declare-fun x_139 () Real)
(declare-fun x_140 () Real)
(declare-fun x_141 () Real)
(declare-fun x_142 () Real)
(declare-fun x_143 () Real)
(declare-fun x_144 () Real)
(declare-fun x_145 () Real)
(declare-fun x_146 () Bool)
(declare-fun x_147 () Real)
(declare-fun x_148 () Bool)
(declare-fun x_149 () Bool)
(declare-fun x_150 () Real)
(declare-fun x_151 () Bool)
(declare-fun x_152 () Real)
(declare-fun x_153 () Real)
(declare-fun x_154 () Real)
(declare-fun x_155 () Real)
(declare-fun x_156 () Real)
(declare-fun x_157 () Real)
(declare-fun x_158 () Real)
(declare-fun x_159 () Real)
(declare-fun x_160 () Bool)
(declare-fun x_161 () Real)
(declare-fun x_162 () Bool)
(declare-fun x_163 () Bool)
(declare-fun x_164 () Real)
(declare-fun x_165 () Bool)
(declare-fun x_166 () Real)
(declare-fun x_167 () Real)
(declare-fun x_168 () Real)
(declare-fun x_169 () Real)
(declare-fun x_170 () Real)
(declare-fun x_171 () Real)
(declare-fun x_172 () Real)
(declare-fun x_173 () Real)
(declare-fun x_174 () Bool)
(declare-fun x_175 () Real)
(declare-fun x_176 () Bool)
(declare-fun x_177 () Bool)
(declare-fun x_178 () Real)
(declare-fun x_179 () Bool)
(declare-fun x_180 () Real)
(declare-fun x_181 () Real)
(declare-fun x_182 () Real)
(declare-fun x_183 () Real)
(declare-fun x_184 () Real)
(declare-fun x_185 () Real)
(declare-fun x_186 () Real)
(declare-fun x_187 () Real)
(declare-fun x_188 () Bool)
(declare-fun x_189 () Real)
(declare-fun x_190 () Bool)
(declare-fun x_191 () Bool)
(declare-fun x_192 () Real)
(declare-fun x_193 () Bool)
(declare-fun x_194 () Real)
(declare-fun x_195 () Real)
(declare-fun x_196 () Real)
(declare-fun x_197 () Real)
(declare-fun x_198 () Real)
(declare-fun x_199 () Real)
(declare-fun x_200 () Real)
(declare-fun x_201 () Real)
(declare-fun x_202 () Bool)
(declare-fun x_203 () Real)
(declare-fun x_204 () Bool)
(declare-fun x_205 () Bool)
(declare-fun x_206 () Real)
(declare-fun x_207 () Bool)
(declare-fun x_208 () Real)
(declare-fun x_209 () Real)
(declare-fun x_210 () Real)
(declare-fun x_211 () Real)
(declare-fun x_212 () Real)
(declare-fun x_213 () Real)
(declare-fun x_214 () Real)
(declare-fun x_215 () Real)
(declare-fun x_216 () Bool)
(declare-fun x_217 () Real)
(declare-fun x_218 () Bool)
(declare-fun x_219 () Bool)
(declare-fun x_220 () Real)
(declare-fun x_221 () Bool)
(declare-fun x_222 () Real)
(declare-fun x_223 () Real)
(declare-fun x_224 () Real)
(declare-fun x_225 () Real)
(declare-fun x_226 () Real)
(declare-fun x_227 () Real)
(declare-fun x_228 () Real)
(declare-fun x_229 () Real)
(declare-fun x_230 () Bool)
(declare-fun x_231 () Real)
(declare-fun x_232 () Bool)
(declare-fun x_233 () Bool)
(declare-fun x_234 () Real)
(declare-fun x_235 () Bool)
(declare-fun x_236 () Real)
(declare-fun x_237 () Real)
(declare-fun x_238 () Real)
(declare-fun x_239 () Real)
(declare-fun x_240 () Real)
(declare-fun x_241 () Real)
(declare-fun x_242 () Real)
(declare-fun x_243 () Real)
(declare-fun x_244 () Bool)
(declare-fun x_245 () Real)
(declare-fun x_246 () Bool)
(declare-fun x_247 () Bool)
(declare-fun x_248 () Real)
(declare-fun x_249 () Bool)
(declare-fun x_250 () Real)
(declare-fun x_251 () Real)
(declare-fun x_252 () Real)
(declare-fun x_253 () Real)
(declare-fun x_254 () Real)
(declare-fun x_255 () Real)
(declare-fun x_256 () Real)
(declare-fun x_257 () Real)
(declare-fun x_258 () Bool)
(declare-fun x_259 () Real)
(declare-fun x_260 () Bool)
(declare-fun x_261 () Bool)
(declare-fun x_262 () Real)
(declare-fun x_263 () Bool)
(declare-fun x_264 () Real)
(declare-fun x_265 () Real)
(declare-fun x_266 () Real)
(declare-fun x_267 () Real)
(declare-fun x_268 () Real)
(declare-fun x_269 () Real)
(declare-fun x_270 () Real)
(declare-fun x_271 () Real)
(declare-fun x_272 () Bool)
(declare-fun x_273 () Real)
(declare-fun x_274 () Bool)
(declare-fun x_275 () Bool)
(declare-fun x_276 () Real)
(declare-fun x_277 () Bool)
(declare-fun x_278 () Real)
(declare-fun x_279 () Real)
(declare-fun x_280 () Real)
(declare-fun x_281 () Real)
(declare-fun x_282 () Real)
(declare-fun x_283 () Real)
(declare-fun x_284 () Real)
(declare-fun x_285 () Real)
(declare-fun x_286 () Bool)
(declare-fun x_287 () Real)
(declare-fun x_288 () Bool)
(declare-fun x_289 () Bool)
(declare-fun x_290 () Real)
(declare-fun x_291 () Bool)
(declare-fun x_292 () Real)
(declare-fun x_293 () Real)
(declare-fun x_294 () Real)
(declare-fun x_295 () Real)
(declare-fun x_296 () Real)
(declare-fun x_297 () Real)
(declare-fun x_298 () Real)
(declare-fun x_299 () Real)
(declare-fun x_300 () Bool)
(declare-fun x_301 () Real)
(declare-fun x_302 () Bool)
(declare-fun x_303 () Bool)
(declare-fun x_304 () Real)
(declare-fun x_305 () Bool)
(declare-fun x_306 () Real)
(declare-fun x_307 () Real)
(declare-fun x_308 () Real)
(declare-fun x_309 () Real)
(declare-fun x_310 () Real)
(declare-fun x_311 () Real)
(declare-fun x_312 () Real)
(declare-fun x_313 () Real)
(declare-fun x_314 () Bool)
(declare-fun x_315 () Real)
(declare-fun x_316 () Bool)
(declare-fun x_317 () Bool)
(declare-fun x_318 () Real)
(declare-fun x_319 () Bool)
(declare-fun x_320 () Real)
(declare-fun x_321 () Real)
(declare-fun x_322 () Real)
(declare-fun x_323 () Real)
(declare-fun x_324 () Real)
(declare-fun x_325 () Real)
(declare-fun x_326 () Real)
(declare-fun x_327 () Real)
(declare-fun x_328 () Bool)
(declare-fun x_329 () Real)
(declare-fun x_330 () Real)
(declare-fun x_331 () Bool)
(declare-fun x_332 () Bool)
(declare-fun x_333 () Bool)
(declare-fun x_334 () Bool)
(declare-fun x_335 () Real)
(declare-fun x_336 () Bool)
(declare-fun x_337 () Real)
(declare-fun x_338 () Real)
(declare-fun x_339 () Real)
(declare-fun x_340 () Real)
(assert (let ((?v_227 (= x_72 x_73)) (?v_228 (= x_74 x_75)) (?v_229 (= x_76 x_77)) (?v_225 (= x_78 x_79))) (let ((?v_230 (not ?v_225)) (?v_233 (= x_80 x_81)) (?v_222 (= x_82 x_83)) (?v_223 (= x_7 x_3)) (?v_226 (ite (<= x_74 x_78) x_74 x_78)) (?v_221 (ite (<= x_78 x_74) x_78 x_74)) (?v_214 (= x_99 x_72)) (?v_215 (= x_75 x_100)) (?v_216 (= x_101 x_76)) (?v_212 (= x_79 x_102))) (let ((?v_217 (not ?v_212)) (?v_220 (= x_103 x_80)) (?v_209 (= x_104 x_82)) (?v_210 (= x_11 x_7)) (?v_213 (ite (<= x_75 x_79) x_75 x_79)) (?v_208 (ite (<= x_79 x_75) x_79 x_75)) (?v_201 (= x_113 x_99)) (?v_202 (= x_100 x_114)) (?v_203 (= x_115 x_101)) (?v_199 (= x_102 x_116))) (let ((?v_204 (not ?v_199)) (?v_207 (= x_117 x_103)) (?v_196 (= x_118 x_104)) (?v_197 (= x_15 x_11)) (?v_200 (ite (<= x_100 x_102) x_100 x_102)) (?v_195 (ite (<= x_102 x_100) x_102 x_100)) (?v_188 (= x_127 x_113)) (?v_189 (= x_114 x_128)) (?v_190 (= x_129 x_115)) (?v_186 (= x_116 x_130))) (let ((?v_191 (not ?v_186)) (?v_194 (= x_131 x_117)) (?v_183 (= x_132 x_118)) (?v_184 (= x_19 x_15)) (?v_187 (ite (<= x_114 x_116) x_114 x_116)) (?v_182 (ite (<= x_116 x_114) x_116 x_114)) (?v_175 (= x_141 x_127)) (?v_176 (= x_128 x_142)) (?v_177 (= x_143 x_129)) (?v_173 (= x_130 x_144))) (let ((?v_178 (not ?v_173)) (?v_181 (= x_145 x_131)) (?v_170 (= x_146 x_132)) (?v_171 (= x_23 x_19)) (?v_174 (ite (<= x_128 x_130) x_128 x_130)) (?v_169 (ite (<= x_130 x_128) x_130 x_128)) (?v_162 (= x_155 x_141)) (?v_163 (= x_142 x_156)) (?v_164 (= x_157 x_143)) (?v_160 (= x_144 x_158))) (let ((?v_165 (not ?v_160)) (?v_168 (= x_159 x_145)) (?v_157 (= x_160 x_146)) (?v_158 (= x_27 x_23)) (?v_161 (ite (<= x_142 x_144) x_142 x_144)) (?v_156 (ite (<= x_144 x_142) x_144 x_142)) (?v_149 (= x_169 x_155)) (?v_150 (= x_156 x_170)) (?v_151 (= x_171 x_157)) (?v_147 (= x_158 x_172))) (let ((?v_152 (not ?v_147)) (?v_155 (= x_173 x_159)) (?v_144 (= x_174 x_160)) (?v_145 (= x_31 x_27)) (?v_148 (ite (<= x_156 x_158) x_156 x_158)) (?v_143 (ite (<= x_158 x_156) x_158 x_156)) (?v_136 (= x_183 x_169)) (?v_137 (= x_170 x_184)) (?v_138 (= x_185 x_171)) (?v_134 (= x_172 x_186))) (let ((?v_139 (not ?v_134)) (?v_142 (= x_187 x_173)) (?v_131 (= x_188 x_174)) (?v_132 (= x_35 x_31)) (?v_135 (ite (<= x_170 x_172) x_170 x_172)) (?v_130 (ite (<= x_172 x_170) x_172 x_170)) (?v_123 (= x_197 x_183)) (?v_124 (= x_184 x_198)) (?v_125 (= x_199 x_185)) (?v_121 (= x_186 x_200))) (let ((?v_126 (not ?v_121)) (?v_129 (= x_201 x_187)) (?v_118 (= x_202 x_188)) (?v_119 (= x_39 x_35)) (?v_122 (ite (<= x_184 x_186) x_184 x_186)) (?v_117 (ite (<= x_186 x_184) x_186 x_184)) (?v_110 (= x_211 x_197)) (?v_111 (= x_198 x_212)) (?v_112 (= x_213 x_199)) (?v_108 (= x_200 x_214))) (let ((?v_113 (not ?v_108)) (?v_116 (= x_215 x_201)) (?v_105 (= x_216 x_202)) (?v_106 (= x_43 x_39)) (?v_109 (ite (<= x_198 x_200) x_198 x_200)) (?v_104 (ite (<= x_200 x_198) x_200 x_198)) (?v_97 (= x_225 x_211)) (?v_98 (= x_212 x_226)) (?v_99 (= x_227 x_213)) (?v_95 (= x_214 x_228))) (let ((?v_100 (not ?v_95)) (?v_103 (= x_229 x_215)) (?v_92 (= x_230 x_216)) (?v_93 (= x_47 x_43)) (?v_96 (ite (<= x_212 x_214) x_212 x_214)) (?v_91 (ite (<= x_214 x_212) x_214 x_212)) (?v_84 (= x_239 x_225)) (?v_85 (= x_226 x_240)) (?v_86 (= x_241 x_227)) (?v_82 (= x_228 x_242))) (let ((?v_87 (not ?v_82)) (?v_90 (= x_243 x_229)) (?v_79 (= x_244 x_230)) (?v_80 (= x_51 x_47)) (?v_83 (ite (<= x_226 x_228) x_226 x_228)) (?v_78 (ite (<= x_228 x_226) x_228 x_226)) (?v_71 (= x_253 x_239)) (?v_72 (= x_240 x_254)) (?v_73 (= x_255 x_241)) (?v_69 (= x_242 x_256))) (let ((?v_74 (not ?v_69)) (?v_77 (= x_257 x_243)) (?v_66 (= x_258 x_244)) (?v_67 (= x_55 x_51)) (?v_70 (ite (<= x_240 x_242) x_240 x_242)) (?v_65 (ite (<= x_242 x_240) x_242 x_240)) (?v_58 (= x_267 x_253)) (?v_59 (= x_254 x_268)) (?v_60 (= x_269 x_255)) (?v_56 (= x_256 x_270))) (let ((?v_61 (not ?v_56)) (?v_64 (= x_271 x_257)) (?v_53 (= x_272 x_258)) (?v_54 (= x_59 x_55)) (?v_57 (ite (<= x_254 x_256) x_254 x_256)) (?v_52 (ite (<= x_256 x_254) x_256 x_254)) (?v_45 (= x_281 x_267)) (?v_46 (= x_268 x_282)) (?v_47 (= x_283 x_269)) (?v_43 (= x_270 x_284))) (let ((?v_48 (not ?v_43)) (?v_51 (= x_285 x_271)) (?v_40 (= x_286 x_272)) (?v_41 (= x_63 x_59)) (?v_44 (ite (<= x_268 x_270) x_268 x_270)) (?v_39 (ite (<= x_270 x_268) x_270 x_268)) (?v_32 (= x_295 x_281)) (?v_33 (= x_282 x_296)) (?v_34 (= x_297 x_283)) (?v_30 (= x_284 x_298))) (let ((?v_35 (not ?v_30)) (?v_38 (= x_299 x_285)) (?v_27 (= x_300 x_286)) (?v_28 (= x_67 x_63)) (?v_31 (ite (<= x_282 x_284) x_282 x_284)) (?v_26 (ite (<= x_284 x_282) x_284 x_282)) (?v_19 (= x_309 x_295)) (?v_20 (= x_296 x_310)) (?v_21 (= x_311 x_297)) (?v_17 (= x_298 x_312))) (let ((?v_22 (not ?v_17)) (?v_25 (= x_313 x_299)) (?v_14 (= x_314 x_300)) (?v_15 (= x_71 x_67)) (?v_18 (ite (<= x_296 x_298) x_296 x_298)) (?v_13 (ite (<= x_298 x_296) x_298 x_296)) (?v_6 (= x_323 x_309)) (?v_7 (= x_310 x_324)) (?v_8 (= x_325 x_311)) (?v_4 (= x_312 x_326))) (let ((?v_9 (not ?v_4)) (?v_12 (= x_327 x_313)) (?v_1 (= x_328 x_314)) (?v_2 (= x_329 x_71)) (?v_5 (ite (<= x_310 x_312) x_310 x_312)) (?v_0 (ite (<= x_312 x_310) x_312 x_310)) (?v_3 (= x_332 x_69)) (?v_11 (= x_71 x_329)) (?v_16 (= x_69 x_65)) (?v_24 (= x_67 x_71)) (?v_29 (= x_65 x_61)) (?v_37 (= x_63 x_67)) (?v_42 (= x_61 x_57)) (?v_50 (= x_59 x_63)) (?v_55 (= x_57 x_53)) (?v_63 (= x_55 x_59)) (?v_68 (= x_53 x_49)) (?v_76 (= x_51 x_55)) (?v_81 (= x_49 x_45)) (?v_89 (= x_47 x_51)) (?v_94 (= x_45 x_41)) (?v_102 (= x_43 x_47)) (?v_107 (= x_41 x_37)) (?v_115 (= x_39 x_43)) (?v_120 (= x_37 x_33)) (?v_128 (= x_35 x_39)) (?v_133 (= x_33 x_29)) (?v_141 (= x_31 x_35)) (?v_146 (= x_29 x_25)) (?v_154 (= x_27 x_31)) (?v_159 (= x_25 x_21)) (?v_167 (= x_23 x_27)) (?v_172 (= x_21 x_17)) (?v_180 (= x_19 x_23)) (?v_185 (= x_17 x_13)) (?v_193 (= x_15 x_19)) (?v_198 (= x_13 x_9)) (?v_206 (= x_11 x_15)) (?v_211 (= x_9 x_5)) (?v_219 (= x_7 x_11)) (?v_224 (= x_5 x_1)) (?v_232 (= x_3 x_7))) (let ((?v_10 (+ ?v_5 x_86)) (?v_23 (+ ?v_18 x_86)) (?v_36 (+ ?v_31 x_86)) (?v_49 (+ ?v_44 x_86)) (?v_62 (+ ?v_57 x_86)) (?v_75 (+ ?v_70 x_86)) (?v_88 (+ ?v_83 x_86)) (?v_101 (+ ?v_96 x_86)) (?v_114 (+ ?v_109 x_86)) (?v_127 (+ ?v_122 x_86)) (?v_140 (+ ?v_135 x_86)) (?v_153 (+ ?v_148 x_86)) (?v_166 (+ ?v_161 x_86)) (?v_179 (+ ?v_174 x_86)) (?v_192 (+ ?v_187 x_86)) (?v_205 (+ ?v_200 x_86)) (?v_218 (+ ?v_213 x_86)) (?v_231 (+ ?v_226 x_86))) (and (and (and (and (and (and (and (and (and (and (and (and (and (and (and (and (and (and (and (and (and (and (and (and (and (and (and (and (and (and (and (and (and (and (and (and (and (and (and (and (and (and (and (and (and (and (and (and (and (and (and (and (and (and (and (and (and (and (and (and (and (and (and (and (and (and (and (and (and (and (and (and (and (and (and (and (and (and (and (and (and (and (and (and (and (and (and (and (and (and (and (and (and (and (and (and (and (and (and (> x_84 0) (> x_85 0)) (>= x_86 0)) (< x_86 x_84)) (< x_86 x_85)) (>= x_97 0)) (< x_97 x_84)) (< x_97 x_85)) (or (= x_68 x_69) (= x_70 x_71))) (or (= x_64 x_65) (= x_66 x_67))) (or (= x_60 x_61) (= x_62 x_63))) (or (= x_56 x_57) (= x_58 x_59))) (or (= x_52 x_53) (= x_54 x_55))) (or (= x_48 x_49) (= x_50 x_51))) (or (= x_44 x_45) (= x_46 x_47))) (or (= x_40 x_41) (= x_42 x_43))) (or (= x_36 x_37) (= x_38 x_39))) (or (= x_32 x_33) (= x_34 x_35))) (or (= x_28 x_29) (= x_30 x_31))) (or (= x_24 x_25) (= x_26 x_27))) (or (= x_20 x_21) (= x_22 x_23))) (or (= x_16 x_17) (= x_18 x_19))) (or (= x_12 x_13) (= x_14 x_15))) (or (= x_8 x_9) (= x_10 x_11))) (or (= x_4 x_5) (= x_6 x_7))) (or (= x_0 x_1) (= x_2 x_3))) (or (and (and (and (and (and (and (and (and (and (= x_330 0) (= x_331 x_319)) (= ?v_0 x_312)) (<= (+ ?v_0 x_84) x_326)) (or ?v_3 (= x_332 x_68))) (= x_333 x_316)) (= x_334 x_317)) (= x_324 x_310)) ?v_1) ?v_2) (and (and (and (and (and (and (and (and (and (= x_330 1) (= x_334 x_316)) (= ?v_0 x_310)) (<= (+ ?v_0 x_85) x_324)) (or (and (and (= x_335 0) ?v_1) ?v_2) (and (and (= x_335 1) (= x_314 x_317)) (= x_328 (not x_314))))) (= x_336 x_319)) (= x_331 x_68)) (= x_337 x_70)) (= x_326 x_312)) ?v_3))) (or (or (and (and (and (= x_338 0) ?v_9) (or (not (<= x_309 ?v_5)) (= x_336 x_314))) ?v_6) (and (and (and (= x_338 1) ?v_4) (xor x_314 x_328)) (= x_323 ?v_10))) (and (and (and (= x_338 2) ?v_4) (= x_314 x_328)) ?v_6))) (or (or (and (and (and (= x_339 0) (not ?v_7)) (or (not (<= x_311 ?v_0)) (= x_333 x_69))) ?v_8) (and (and (and (= x_339 1) ?v_7) (xor x_69 x_332)) (= x_325 (+ ?v_0 x_97)))) (and (and (and (= x_339 2) ?v_7) (= x_69 x_332)) ?v_8))) (or (or (and (and (and (= x_340 0) ?v_9) (or (not (<= x_313 ?v_5)) (= x_337 x_71))) ?v_12) (and (and (and (= x_340 1) ?v_4) (not ?v_11)) (= x_327 ?v_10))) (and (and (and (= x_340 2) ?v_4) ?v_11) ?v_12))) (or (and (and (and (and (and (and (and (and (and (= x_315 0) (= x_68 x_305)) (= ?v_13 x_298)) (<= (+ ?v_13 x_84) x_312)) (or ?v_16 (= x_69 x_64))) (= x_316 x_302)) (= x_317 x_303)) (= x_310 x_296)) ?v_14) ?v_15) (and (and (and (and (and (and (and (and (and (= x_315 1) (= x_317 x_302)) (= ?v_13 x_296)) (<= (+ ?v_13 x_85) x_310)) (or (and (and (= x_318 0) ?v_14) ?v_15) (and (and (= x_318 1) (= x_300 x_303)) (= x_314 (not x_300))))) (= x_319 x_305)) (= x_68 x_64)) (= x_70 x_66)) (= x_312 x_298)) ?v_16))) (or (or (and (and (and (= x_320 0) ?v_22) (or (not (<= x_295 ?v_18)) (= x_319 x_300))) ?v_19) (and (and (and (= x_320 1) ?v_17) (xor x_300 x_314)) (= x_309 ?v_23))) (and (and (and (= x_320 2) ?v_17) (= x_300 x_314)) ?v_19))) (or (or (and (and (and (= x_321 0) (not ?v_20)) (or (not (<= x_297 ?v_13)) (= x_316 x_65))) ?v_21) (and (and (and (= x_321 1) ?v_20) (xor x_65 x_69)) (= x_311 (+ ?v_13 x_97)))) (and (and (and (= x_321 2) ?v_20) (= x_65 x_69)) ?v_21))) (or (or (and (and (and (= x_322 0) ?v_22) (or (not (<= x_299 ?v_18)) (= x_70 x_67))) ?v_25) (and (and (and (= x_322 1) ?v_17) (not ?v_24)) (= x_313 ?v_23))) (and (and (and (= x_322 2) ?v_17) ?v_24) ?v_25))) (or (and (and (and (and (and (and (and (and (and (= x_301 0) (= x_64 x_291)) (= ?v_26 x_284)) (<= (+ ?v_26 x_84) x_298)) (or ?v_29 (= x_65 x_60))) (= x_302 x_288)) (= x_303 x_289)) (= x_296 x_282)) ?v_27) ?v_28) (and (and (and (and (and (and (and (and (and (= x_301 1) (= x_303 x_288)) (= ?v_26 x_282)) (<= (+ ?v_26 x_85) x_296)) (or (and (and (= x_304 0) ?v_27) ?v_28) (and (and (= x_304 1) (= x_286 x_289)) (= x_300 (not x_286))))) (= x_305 x_291)) (= x_64 x_60)) (= x_66 x_62)) (= x_298 x_284)) ?v_29))) (or (or (and (and (and (= x_306 0) ?v_35) (or (not (<= x_281 ?v_31)) (= x_305 x_286))) ?v_32) (and (and (and (= x_306 1) ?v_30) (xor x_286 x_300)) (= x_295 ?v_36))) (and (and (and (= x_306 2) ?v_30) (= x_286 x_300)) ?v_32))) (or (or (and (and (and (= x_307 0) (not ?v_33)) (or (not (<= x_283 ?v_26)) (= x_302 x_61))) ?v_34) (and (and (and (= x_307 1) ?v_33) (xor x_61 x_65)) (= x_297 (+ ?v_26 x_97)))) (and (and (and (= x_307 2) ?v_33) (= x_61 x_65)) ?v_34))) (or (or (and (and (and (= x_308 0) ?v_35) (or (not (<= x_285 ?v_31)) (= x_66 x_63))) ?v_38) (and (and (and (= x_308 1) ?v_30) (not ?v_37)) (= x_299 ?v_36))) (and (and (and (= x_308 2) ?v_30) ?v_37) ?v_38))) (or (and (and (and (and (and (and (and (and (and (= x_287 0) (= x_60 x_277)) (= ?v_39 x_270)) (<= (+ ?v_39 x_84) x_284)) (or ?v_42 (= x_61 x_56))) (= x_288 x_274)) (= x_289 x_275)) (= x_282 x_268)) ?v_40) ?v_41) (and (and (and (and (and (and (and (and (and (= x_287 1) (= x_289 x_274)) (= ?v_39 x_268)) (<= (+ ?v_39 x_85) x_282)) (or (and (and (= x_290 0) ?v_40) ?v_41) (and (and (= x_290 1) (= x_272 x_275)) (= x_286 (not x_272))))) (= x_291 x_277)) (= x_60 x_56)) (= x_62 x_58)) (= x_284 x_270)) ?v_42))) (or (or (and (and (and (= x_292 0) ?v_48) (or (not (<= x_267 ?v_44)) (= x_291 x_272))) ?v_45) (and (and (and (= x_292 1) ?v_43) (xor x_272 x_286)) (= x_281 ?v_49))) (and (and (and (= x_292 2) ?v_43) (= x_272 x_286)) ?v_45))) (or (or (and (and (and (= x_293 0) (not ?v_46)) (or (not (<= x_269 ?v_39)) (= x_288 x_57))) ?v_47) (and (and (and (= x_293 1) ?v_46) (xor x_57 x_61)) (= x_283 (+ ?v_39 x_97)))) (and (and (and (= x_293 2) ?v_46) (= x_57 x_61)) ?v_47))) (or (or (and (and (and (= x_294 0) ?v_48) (or (not (<= x_271 ?v_44)) (= x_62 x_59))) ?v_51) (and (and (and (= x_294 1) ?v_43) (not ?v_50)) (= x_285 ?v_49))) (and (and (and (= x_294 2) ?v_43) ?v_50) ?v_51))) (or (and (and (and (and (and (and (and (and (and (= x_273 0) (= x_56 x_263)) (= ?v_52 x_256)) (<= (+ ?v_52 x_84) x_270)) (or ?v_55 (= x_57 x_52))) (= x_274 x_260)) (= x_275 x_261)) (= x_268 x_254)) ?v_53) ?v_54) (and (and (and (and (and (and (and (and (and (= x_273 1) (= x_275 x_260)) (= ?v_52 x_254)) (<= (+ ?v_52 x_85) x_268)) (or (and (and (= x_276 0) ?v_53) ?v_54) (and (and (= x_276 1) (= x_258 x_261)) (= x_272 (not x_258))))) (= x_277 x_263)) (= x_56 x_52)) (= x_58 x_54)) (= x_270 x_256)) ?v_55))) (or (or (and (and (and (= x_278 0) ?v_61) (or (not (<= x_253 ?v_57)) (= x_277 x_258))) ?v_58) (and (and (and (= x_278 1) ?v_56) (xor x_258 x_272)) (= x_267 ?v_62))) (and (and (and (= x_278 2) ?v_56) (= x_258 x_272)) ?v_58))) (or (or (and (and (and (= x_279 0) (not ?v_59)) (or (not (<= x_255 ?v_52)) (= x_274 x_53))) ?v_60) (and (and (and (= x_279 1) ?v_59) (xor x_53 x_57)) (= x_269 (+ ?v_52 x_97)))) (and (and (and (= x_279 2) ?v_59) (= x_53 x_57)) ?v_60))) (or (or (and (and (and (= x_280 0) ?v_61) (or (not (<= x_257 ?v_57)) (= x_58 x_55))) ?v_64) (and (and (and (= x_280 1) ?v_56) (not ?v_63)) (= x_271 ?v_62))) (and (and (and (= x_280 2) ?v_56) ?v_63) ?v_64))) (or (and (and (and (and (and (and (and (and (and (= x_259 0) (= x_52 x_249)) (= ?v_65 x_242)) (<= (+ ?v_65 x_84) x_256)) (or ?v_68 (= x_53 x_48))) (= x_260 x_246)) (= x_261 x_247)) (= x_254 x_240)) ?v_66) ?v_67) (and (and (and (and (and (and (and (and (and (= x_259 1) (= x_261 x_246)) (= ?v_65 x_240)) (<= (+ ?v_65 x_85) x_254)) (or (and (and (= x_262 0) ?v_66) ?v_67) (and (and (= x_262 1) (= x_244 x_247)) (= x_258 (not x_244))))) (= x_263 x_249)) (= x_52 x_48)) (= x_54 x_50)) (= x_256 x_242)) ?v_68))) (or (or (and (and (and (= x_264 0) ?v_74) (or (not (<= x_239 ?v_70)) (= x_263 x_244))) ?v_71) (and (and (and (= x_264 1) ?v_69) (xor x_244 x_258)) (= x_253 ?v_75))) (and (and (and (= x_264 2) ?v_69) (= x_244 x_258)) ?v_71))) (or (or (and (and (and (= x_265 0) (not ?v_72)) (or (not (<= x_241 ?v_65)) (= x_260 x_49))) ?v_73) (and (and (and (= x_265 1) ?v_72) (xor x_49 x_53)) (= x_255 (+ ?v_65 x_97)))) (and (and (and (= x_265 2) ?v_72) (= x_49 x_53)) ?v_73))) (or (or (and (and (and (= x_266 0) ?v_74) (or (not (<= x_243 ?v_70)) (= x_54 x_51))) ?v_77) (and (and (and (= x_266 1) ?v_69) (not ?v_76)) (= x_257 ?v_75))) (and (and (and (= x_266 2) ?v_69) ?v_76) ?v_77))) (or (and (and (and (and (and (and (and (and (and (= x_245 0) (= x_48 x_235)) (= ?v_78 x_228)) (<= (+ ?v_78 x_84) x_242)) (or ?v_81 (= x_49 x_44))) (= x_246 x_232)) (= x_247 x_233)) (= x_240 x_226)) ?v_79) ?v_80) (and (and (and (and (and (and (and (and (and (= x_245 1) (= x_247 x_232)) (= ?v_78 x_226)) (<= (+ ?v_78 x_85) x_240)) (or (and (and (= x_248 0) ?v_79) ?v_80) (and (and (= x_248 1) (= x_230 x_233)) (= x_244 (not x_230))))) (= x_249 x_235)) (= x_48 x_44)) (= x_50 x_46)) (= x_242 x_228)) ?v_81))) (or (or (and (and (and (= x_250 0) ?v_87) (or (not (<= x_225 ?v_83)) (= x_249 x_230))) ?v_84) (and (and (and (= x_250 1) ?v_82) (xor x_230 x_244)) (= x_239 ?v_88))) (and (and (and (= x_250 2) ?v_82) (= x_230 x_244)) ?v_84))) (or (or (and (and (and (= x_251 0) (not ?v_85)) (or (not (<= x_227 ?v_78)) (= x_246 x_45))) ?v_86) (and (and (and (= x_251 1) ?v_85) (xor x_45 x_49)) (= x_241 (+ ?v_78 x_97)))) (and (and (and (= x_251 2) ?v_85) (= x_45 x_49)) ?v_86))) (or (or (and (and (and (= x_252 0) ?v_87) (or (not (<= x_229 ?v_83)) (= x_50 x_47))) ?v_90) (and (and (and (= x_252 1) ?v_82) (not ?v_89)) (= x_243 ?v_88))) (and (and (and (= x_252 2) ?v_82) ?v_89) ?v_90))) (or (and (and (and (and (and (and (and (and (and (= x_231 0) (= x_44 x_221)) (= ?v_91 x_214)) (<= (+ ?v_91 x_84) x_228)) (or ?v_94 (= x_45 x_40))) (= x_232 x_218)) (= x_233 x_219)) (= x_226 x_212)) ?v_92) ?v_93) (and (and (and (and (and (and (and (and (and (= x_231 1) (= x_233 x_218)) (= ?v_91 x_212)) (<= (+ ?v_91 x_85) x_226)) (or (and (and (= x_234 0) ?v_92) ?v_93) (and (and (= x_234 1) (= x_216 x_219)) (= x_230 (not x_216))))) (= x_235 x_221)) (= x_44 x_40)) (= x_46 x_42)) (= x_228 x_214)) ?v_94))) (or (or (and (and (and (= x_236 0) ?v_100) (or (not (<= x_211 ?v_96)) (= x_235 x_216))) ?v_97) (and (and (and (= x_236 1) ?v_95) (xor x_216 x_230)) (= x_225 ?v_101))) (and (and (and (= x_236 2) ?v_95) (= x_216 x_230)) ?v_97))) (or (or (and (and (and (= x_237 0) (not ?v_98)) (or (not (<= x_213 ?v_91)) (= x_232 x_41))) ?v_99) (and (and (and (= x_237 1) ?v_98) (xor x_41 x_45)) (= x_227 (+ ?v_91 x_97)))) (and (and (and (= x_237 2) ?v_98) (= x_41 x_45)) ?v_99))) (or (or (and (and (and (= x_238 0) ?v_100) (or (not (<= x_215 ?v_96)) (= x_46 x_43))) ?v_103) (and (and (and (= x_238 1) ?v_95) (not ?v_102)) (= x_229 ?v_101))) (and (and (and (= x_238 2) ?v_95) ?v_102) ?v_103))) (or (and (and (and (and (and (and (and (and (and (= x_217 0) (= x_40 x_207)) (= ?v_104 x_200)) (<= (+ ?v_104 x_84) x_214)) (or ?v_107 (= x_41 x_36))) (= x_218 x_204)) (= x_219 x_205)) (= x_212 x_198)) ?v_105) ?v_106) (and (and (and (and (and (and (and (and (and (= x_217 1) (= x_219 x_204)) (= ?v_104 x_198)) (<= (+ ?v_104 x_85) x_212)) (or (and (and (= x_220 0) ?v_105) ?v_106) (and (and (= x_220 1) (= x_202 x_205)) (= x_216 (not x_202))))) (= x_221 x_207)) (= x_40 x_36)) (= x_42 x_38)) (= x_214 x_200)) ?v_107))) (or (or (and (and (and (= x_222 0) ?v_113) (or (not (<= x_197 ?v_109)) (= x_221 x_202))) ?v_110) (and (and (and (= x_222 1) ?v_108) (xor x_202 x_216)) (= x_211 ?v_114))) (and (and (and (= x_222 2) ?v_108) (= x_202 x_216)) ?v_110))) (or (or (and (and (and (= x_223 0) (not ?v_111)) (or (not (<= x_199 ?v_104)) (= x_218 x_37))) ?v_112) (and (and (and (= x_223 1) ?v_111) (xor x_37 x_41)) (= x_213 (+ ?v_104 x_97)))) (and (and (and (= x_223 2) ?v_111) (= x_37 x_41)) ?v_112))) (or (or (and (and (and (= x_224 0) ?v_113) (or (not (<= x_201 ?v_109)) (= x_42 x_39))) ?v_116) (and (and (and (= x_224 1) ?v_108) (not ?v_115)) (= x_215 ?v_114))) (and (and (and (= x_224 2) ?v_108) ?v_115) ?v_116))) (or (and (and (and (and (and (and (and (and (and (= x_203 0) (= x_36 x_193)) (= ?v_117 x_186)) (<= (+ ?v_117 x_84) x_200)) (or ?v_120 (= x_37 x_32))) (= x_204 x_190)) (= x_205 x_191)) (= x_198 x_184)) ?v_118) ?v_119) (and (and (and (and (and (and (and (and (and (= x_203 1) (= x_205 x_190)) (= ?v_117 x_184)) (<= (+ ?v_117 x_85) x_198)) (or (and (and (= x_206 0) ?v_118) ?v_119) (and (and (= x_206 1) (= x_188 x_191)) (= x_202 (not x_188))))) (= x_207 x_193)) (= x_36 x_32)) (= x_38 x_34)) (= x_200 x_186)) ?v_120))) (or (or (and (and (and (= x_208 0) ?v_126) (or (not (<= x_183 ?v_122)) (= x_207 x_188))) ?v_123) (and (and (and (= x_208 1) ?v_121) (xor x_188 x_202)) (= x_197 ?v_127))) (and (and (and (= x_208 2) ?v_121) (= x_188 x_202)) ?v_123))) (or (or (and (and (and (= x_209 0) (not ?v_124)) (or (not (<= x_185 ?v_117)) (= x_204 x_33))) ?v_125) (and (and (and (= x_209 1) ?v_124) (xor x_33 x_37)) (= x_199 (+ ?v_117 x_97)))) (and (and (and (= x_209 2) ?v_124) (= x_33 x_37)) ?v_125))) (or (or (and (and (and (= x_210 0) ?v_126) (or (not (<= x_187 ?v_122)) (= x_38 x_35))) ?v_129) (and (and (and (= x_210 1) ?v_121) (not ?v_128)) (= x_201 ?v_127))) (and (and (and (= x_210 2) ?v_121) ?v_128) ?v_129))) (or (and (and (and (and (and (and (and (and (and (= x_189 0) (= x_32 x_179)) (= ?v_130 x_172)) (<= (+ ?v_130 x_84) x_186)) (or ?v_133 (= x_33 x_28))) (= x_190 x_176)) (= x_191 x_177)) (= x_184 x_170)) ?v_131) ?v_132) (and (and (and (and (and (and (and (and (and (= x_189 1) (= x_191 x_176)) (= ?v_130 x_170)) (<= (+ ?v_130 x_85) x_184)) (or (and (and (= x_192 0) ?v_131) ?v_132) (and (and (= x_192 1) (= x_174 x_177)) (= x_188 (not x_174))))) (= x_193 x_179)) (= x_32 x_28)) (= x_34 x_30)) (= x_186 x_172)) ?v_133))) (or (or (and (and (and (= x_194 0) ?v_139) (or (not (<= x_169 ?v_135)) (= x_193 x_174))) ?v_136) (and (and (and (= x_194 1) ?v_134) (xor x_174 x_188)) (= x_183 ?v_140))) (and (and (and (= x_194 2) ?v_134) (= x_174 x_188)) ?v_136))) (or (or (and (and (and (= x_195 0) (not ?v_137)) (or (not (<= x_171 ?v_130)) (= x_190 x_29))) ?v_138) (and (and (and (= x_195 1) ?v_137) (xor x_29 x_33)) (= x_185 (+ ?v_130 x_97)))) (and (and (and (= x_195 2) ?v_137) (= x_29 x_33)) ?v_138))) (or (or (and (and (and (= x_196 0) ?v_139) (or (not (<= x_173 ?v_135)) (= x_34 x_31))) ?v_142) (and (and (and (= x_196 1) ?v_134) (not ?v_141)) (= x_187 ?v_140))) (and (and (and (= x_196 2) ?v_134) ?v_141) ?v_142))) (or (and (and (and (and (and (and (and (and (and (= x_175 0) (= x_28 x_165)) (= ?v_143 x_158)) (<= (+ ?v_143 x_84) x_172)) (or ?v_146 (= x_29 x_24))) (= x_176 x_162)) (= x_177 x_163)) (= x_170 x_156)) ?v_144) ?v_145) (and (and (and (and (and (and (and (and (and (= x_175 1) (= x_177 x_162)) (= ?v_143 x_156)) (<= (+ ?v_143 x_85) x_170)) (or (and (and (= x_178 0) ?v_144) ?v_145) (and (and (= x_178 1) (= x_160 x_163)) (= x_174 (not x_160))))) (= x_179 x_165)) (= x_28 x_24)) (= x_30 x_26)) (= x_172 x_158)) ?v_146))) (or (or (and (and (and (= x_180 0) ?v_152) (or (not (<= x_155 ?v_148)) (= x_179 x_160))) ?v_149) (and (and (and (= x_180 1) ?v_147) (xor x_160 x_174)) (= x_169 ?v_153))) (and (and (and (= x_180 2) ?v_147) (= x_160 x_174)) ?v_149))) (or (or (and (and (and (= x_181 0) (not ?v_150)) (or (not (<= x_157 ?v_143)) (= x_176 x_25))) ?v_151) (and (and (and (= x_181 1) ?v_150) (xor x_25 x_29)) (= x_171 (+ ?v_143 x_97)))) (and (and (and (= x_181 2) ?v_150) (= x_25 x_29)) ?v_151))) (or (or (and (and (and (= x_182 0) ?v_152) (or (not (<= x_159 ?v_148)) (= x_30 x_27))) ?v_155) (and (and (and (= x_182 1) ?v_147) (not ?v_154)) (= x_173 ?v_153))) (and (and (and (= x_182 2) ?v_147) ?v_154) ?v_155))) (or (and (and (and (and (and (and (and (and (and (= x_161 0) (= x_24 x_151)) (= ?v_156 x_144)) (<= (+ ?v_156 x_84) x_158)) (or ?v_159 (= x_25 x_20))) (= x_162 x_148)) (= x_163 x_149)) (= x_156 x_142)) ?v_157) ?v_158) (and (and (and (and (and (and (and (and (and (= x_161 1) (= x_163 x_148)) (= ?v_156 x_142)) (<= (+ ?v_156 x_85) x_156)) (or (and (and (= x_164 0) ?v_157) ?v_158) (and (and (= x_164 1) (= x_146 x_149)) (= x_160 (not x_146))))) (= x_165 x_151)) (= x_24 x_20)) (= x_26 x_22)) (= x_158 x_144)) ?v_159))) (or (or (and (and (and (= x_166 0) ?v_165) (or (not (<= x_141 ?v_161)) (= x_165 x_146))) ?v_162) (and (and (and (= x_166 1) ?v_160) (xor x_146 x_160)) (= x_155 ?v_166))) (and (and (and (= x_166 2) ?v_160) (= x_146 x_160)) ?v_162))) (or (or (and (and (and (= x_167 0) (not ?v_163)) (or (not (<= x_143 ?v_156)) (= x_162 x_21))) ?v_164) (and (and (and (= x_167 1) ?v_163) (xor x_21 x_25)) (= x_157 (+ ?v_156 x_97)))) (and (and (and (= x_167 2) ?v_163) (= x_21 x_25)) ?v_164))) (or (or (and (and (and (= x_168 0) ?v_165) (or (not (<= x_145 ?v_161)) (= x_26 x_23))) ?v_168) (and (and (and (= x_168 1) ?v_160) (not ?v_167)) (= x_159 ?v_166))) (and (and (and (= x_168 2) ?v_160) ?v_167) ?v_168))) (or (and (and (and (and (and (and (and (and (and (= x_147 0) (= x_20 x_137)) (= ?v_169 x_130)) (<= (+ ?v_169 x_84) x_144)) (or ?v_172 (= x_21 x_16))) (= x_148 x_134)) (= x_149 x_135)) (= x_142 x_128)) ?v_170) ?v_171) (and (and (and (and (and (and (and (and (and (= x_147 1) (= x_149 x_134)) (= ?v_169 x_128)) (<= (+ ?v_169 x_85) x_142)) (or (and (and (= x_150 0) ?v_170) ?v_171) (and (and (= x_150 1) (= x_132 x_135)) (= x_146 (not x_132))))) (= x_151 x_137)) (= x_20 x_16)) (= x_22 x_18)) (= x_144 x_130)) ?v_172))) (or (or (and (and (and (= x_152 0) ?v_178) (or (not (<= x_127 ?v_174)) (= x_151 x_132))) ?v_175) (and (and (and (= x_152 1) ?v_173) (xor x_132 x_146)) (= x_141 ?v_179))) (and (and (and (= x_152 2) ?v_173) (= x_132 x_146)) ?v_175))) (or (or (and (and (and (= x_153 0) (not ?v_176)) (or (not (<= x_129 ?v_169)) (= x_148 x_17))) ?v_177) (and (and (and (= x_153 1) ?v_176) (xor x_17 x_21)) (= x_143 (+ ?v_169 x_97)))) (and (and (and (= x_153 2) ?v_176) (= x_17 x_21)) ?v_177))) (or (or (and (and (and (= x_154 0) ?v_178) (or (not (<= x_131 ?v_174)) (= x_22 x_19))) ?v_181) (and (and (and (= x_154 1) ?v_173) (not ?v_180)) (= x_145 ?v_179))) (and (and (and (= x_154 2) ?v_173) ?v_180) ?v_181))) (or (and (and (and (and (and (and (and (and (and (= x_133 0) (= x_16 x_123)) (= ?v_182 x_116)) (<= (+ ?v_182 x_84) x_130)) (or ?v_185 (= x_17 x_12))) (= x_134 x_120)) (= x_135 x_121)) (= x_128 x_114)) ?v_183) ?v_184) (and (and (and (and (and (and (and (and (and (= x_133 1) (= x_135 x_120)) (= ?v_182 x_114)) (<= (+ ?v_182 x_85) x_128)) (or (and (and (= x_136 0) ?v_183) ?v_184) (and (and (= x_136 1) (= x_118 x_121)) (= x_132 (not x_118))))) (= x_137 x_123)) (= x_16 x_12)) (= x_18 x_14)) (= x_130 x_116)) ?v_185))) (or (or (and (and (and (= x_138 0) ?v_191) (or (not (<= x_113 ?v_187)) (= x_137 x_118))) ?v_188) (and (and (and (= x_138 1) ?v_186) (xor x_118 x_132)) (= x_127 ?v_192))) (and (and (and (= x_138 2) ?v_186) (= x_118 x_132)) ?v_188))) (or (or (and (and (and (= x_139 0) (not ?v_189)) (or (not (<= x_115 ?v_182)) (= x_134 x_13))) ?v_190) (and (and (and (= x_139 1) ?v_189) (xor x_13 x_17)) (= x_129 (+ ?v_182 x_97)))) (and (and (and (= x_139 2) ?v_189) (= x_13 x_17)) ?v_190))) (or (or (and (and (and (= x_140 0) ?v_191) (or (not (<= x_117 ?v_187)) (= x_18 x_15))) ?v_194) (and (and (and (= x_140 1) ?v_186) (not ?v_193)) (= x_131 ?v_192))) (and (and (and (= x_140 2) ?v_186) ?v_193) ?v_194))) (or (and (and (and (and (and (and (and (and (and (= x_119 0) (= x_12 x_109)) (= ?v_195 x_102)) (<= (+ ?v_195 x_84) x_116)) (or ?v_198 (= x_13 x_8))) (= x_120 x_106)) (= x_121 x_107)) (= x_114 x_100)) ?v_196) ?v_197) (and (and (and (and (and (and (and (and (and (= x_119 1) (= x_121 x_106)) (= ?v_195 x_100)) (<= (+ ?v_195 x_85) x_114)) (or (and (and (= x_122 0) ?v_196) ?v_197) (and (and (= x_122 1) (= x_104 x_107)) (= x_118 (not x_104))))) (= x_123 x_109)) (= x_12 x_8)) (= x_14 x_10)) (= x_116 x_102)) ?v_198))) (or (or (and (and (and (= x_124 0) ?v_204) (or (not (<= x_99 ?v_200)) (= x_123 x_104))) ?v_201) (and (and (and (= x_124 1) ?v_199) (xor x_104 x_118)) (= x_113 ?v_205))) (and (and (and (= x_124 2) ?v_199) (= x_104 x_118)) ?v_201))) (or (or (and (and (and (= x_125 0) (not ?v_202)) (or (not (<= x_101 ?v_195)) (= x_120 x_9))) ?v_203) (and (and (and (= x_125 1) ?v_202) (xor x_9 x_13)) (= x_115 (+ ?v_195 x_97)))) (and (and (and (= x_125 2) ?v_202) (= x_9 x_13)) ?v_203))) (or (or (and (and (and (= x_126 0) ?v_204) (or (not (<= x_103 ?v_200)) (= x_14 x_11))) ?v_207) (and (and (and (= x_126 1) ?v_199) (not ?v_206)) (= x_117 ?v_205))) (and (and (and (= x_126 2) ?v_199) ?v_206) ?v_207))) (or (and (and (and (and (and (and (and (and (and (= x_105 0) (= x_8 x_94)) (= ?v_208 x_79)) (<= (+ ?v_208 x_84) x_102)) (or ?v_211 (= x_9 x_4))) (= x_106 x_89)) (= x_107 x_91)) (= x_100 x_75)) ?v_209) ?v_210) (and (and (and (and (and (and (and (and (and (= x_105 1) (= x_107 x_89)) (= ?v_208 x_75)) (<= (+ ?v_208 x_85) x_100)) (or (and (and (= x_108 0) ?v_209) ?v_210) (and (and (= x_108 1) (= x_82 x_91)) (= x_104 (not x_82))))) (= x_109 x_94)) (= x_8 x_4)) (= x_10 x_6)) (= x_102 x_79)) ?v_211))) (or (or (and (and (and (= x_110 0) ?v_217) (or (not (<= x_72 ?v_213)) (= x_109 x_82))) ?v_214) (and (and (and (= x_110 1) ?v_212) (xor x_82 x_104)) (= x_99 ?v_218))) (and (and (and (= x_110 2) ?v_212) (= x_82 x_104)) ?v_214))) (or (or (and (and (and (= x_111 0) (not ?v_215)) (or (not (<= x_76 ?v_208)) (= x_106 x_5))) ?v_216) (and (and (and (= x_111 1) ?v_215) (xor x_5 x_9)) (= x_101 (+ ?v_208 x_97)))) (and (and (and (= x_111 2) ?v_215) (= x_5 x_9)) ?v_216))) (or (or (and (and (and (= x_112 0) ?v_217) (or (not (<= x_80 ?v_213)) (= x_10 x_7))) ?v_220) (and (and (and (= x_112 1) ?v_212) (not ?v_219)) (= x_103 ?v_218))) (and (and (and (= x_112 2) ?v_212) ?v_219) ?v_220))) (or (and (and (and (and (and (and (and (and (and (= x_87 0) (= x_4 x_88)) (= ?v_221 x_78)) (<= (+ ?v_221 x_84) x_79)) (or ?v_224 (= x_5 x_0))) (= x_89 x_90)) (= x_91 x_92)) (= x_75 x_74)) ?v_222) ?v_223) (and (and (and (and (and (and (and (and (and (= x_87 1) (= x_91 x_90)) (= ?v_221 x_74)) (<= (+ ?v_221 x_85) x_75)) (or (and (and (= x_93 0) ?v_222) ?v_223) (and (and (= x_93 1) (= x_83 x_92)) (= x_82 (not x_83))))) (= x_94 x_88)) (= x_4 x_0)) (= x_6 x_2)) (= x_79 x_78)) ?v_224))) (or (or (and (and (and (= x_95 0) ?v_230) (or (not (<= x_73 ?v_226)) (= x_94 x_83))) ?v_227) (and (and (and (= x_95 1) ?v_225) (xor x_83 x_82)) (= x_72 ?v_231))) (and (and (and (= x_95 2) ?v_225) (= x_83 x_82)) ?v_227))) (or (or (and (and (and (= x_96 0) (not ?v_228)) (or (not (<= x_77 ?v_221)) (= x_89 x_1))) ?v_229) (and (and (and (= x_96 1) ?v_228) (xor x_1 x_5)) (= x_76 (+ ?v_221 x_97)))) (and (and (and (= x_96 2) ?v_228) (= x_1 x_5)) ?v_229))) (or (or (and (and (and (= x_98 0) ?v_230) (or (not (<= x_81 ?v_226)) (= x_6 x_3))) ?v_233) (and (and (and (= x_98 1) ?v_225) (not ?v_232)) (= x_80 ?v_231))) (and (and (and (= x_98 2) ?v_225) ?v_232) ?v_233))) (xor x_331 x_332)) (not (= x_337 x_329))))))))))))))))))))))))
(check-sat)
(exit)
